\* PC3 *\
Minimize
OBJ: 4 AO__IO3300 + 16 PCA_IO3000 + 16 PCA_IO3010 + 8 PCA_IO3020
 + 8 PCA_IO3030 + 16 PCA_IO3040 + 8 PCA_IO3100 + 12 PCA_IO3130 + 16 PCA_IO3400
 + 16 PCA_IO3410 + 16 PCA_IO3420 + 8 PCA_IO3500 + 34 PCA_IO3510
 + 42 PCA_IO3540 + 42 PCA_IO3545 + 36 PCA_IO3546 + 16 PCA_IO3550
Subject To
_C1: 16 PCA_IO3000 + 16 PCA_IO3040 + 8 PCA_IO3400 + 8 PCA_IO3420
 + 4 PCA_IO3500 + 24 PCA_IO3510 + 24 PCA_IO3540 + 24 PCA_IO3545
 + 18 PCA_IO3546 >= 0
_dummy: __dummy = 0
_C10: __dummy >= 0
_C11: 4 AO__IO3300 >= 2
_C2: 8 PCA_IO3030 >= 0
_C3: 8 PCA_IO3100 + 8 PCA_IO3400 + 8 PCA_IO3420 + 4 PCA_IO3500 + 10 PCA_IO3510
 + 18 PCA_IO3540 + 18 PCA_IO3545 + 18 PCA_IO3546 >= 0
_C4: 10 PCA_IO3550 >= 0
_C5: __dummy >= 0
_C6: 6 PCA_IO3550 >= 0
_C7: 16 PCA_IO3010 + 8 PCA_IO3410 >= 0
_C8: 8 PCA_IO3020 >= 0
_C9: 12 PCA_IO3130 + 8 PCA_IO3410 >= 0
Bounds
0 <= AO__IO3300
0 <= PCA_IO3000
0 <= PCA_IO3010
0 <= PCA_IO3020
0 <= PCA_IO3030
0 <= PCA_IO3040
0 <= PCA_IO3100
0 <= PCA_IO3130
0 <= PCA_IO3400
0 <= PCA_IO3410
0 <= PCA_IO3420
0 <= PCA_IO3500
0 <= PCA_IO3510
0 <= PCA_IO3540
0 <= PCA_IO3545
0 <= PCA_IO3546
0 <= PCA_IO3550
__dummy = 0
Generals
AO__IO3300
PCA_IO3000
PCA_IO3010
PCA_IO3020
PCA_IO3030
PCA_IO3040
PCA_IO3100
PCA_IO3130
PCA_IO3400
PCA_IO3410
PCA_IO3420
PCA_IO3500
PCA_IO3510
PCA_IO3540
PCA_IO3545
PCA_IO3546
PCA_IO3550
End
